Minimize
	value: tt

Subject to
tt + 1000 s_1_1 > 0.0
tt - t_1_1 - 1001.269019 s_1_1  + 0.634510 s_1_8  + 0.634510 s_1_7  > -981.131467
tt + 1000 s_2_1 > 0.0
tt - t_2_1 - 1001.962886 s_2_1  + 0.981443 s_2_8  + 0.981443 s_2_7  > -983.607500
tt + 1000 s_1_2 > 0.0
tt - t_1_2 - 1000.634510 s_1_2  + 0.634510 s_1_7  > -981.055800
tt + 1000 s_2_2 > 0.0
tt - t_2_2 - 1000.981443 s_2_2  + 0.981443 s_2_7  > -983.663100
tt + 1000 s_1_3 > 0.0
tt - t_1_3 - 1001.269019 s_1_3  + 0.634510 s_1_8  + 0.634510 s_1_7  > -998.047544
tt + 1000 s_2_3 > 0.0
tt - t_2_3 - 1001.962886 s_2_3  + 0.981443 s_2_8  + 0.981443 s_2_7  > -995.118500
tt + 1000 s_1_4 > 0.0
tt - t_1_4 - 1000.634510 s_1_4  + 0.634510 s_1_7  > -997.069835
tt + 1000 s_2_4 > 0.0
tt - t_2_4 - 1000.981443 s_2_4  + 0.981443 s_2_7  > -992.713800
tt + 1000 s_1_5 > 0.0
tt - t_1_5 - 1000.634510 s_1_5  + 0.634510 s_1_8  > -991.069511
tt + 1000 s_2_5 > 0.0
tt - t_2_5 - 1000.981443 s_2_5  + 0.981443 s_2_8  > -991.143500
tt + 1000 s_1_6 > 0.0
tt - t_1_6 - 1003.807057 s_1_6  + 0.634510 s_1_1  + 0.634510 s_1_2  + 0.634510 s_1_7  + 0.634510 s_1_5  + 0.634510 s_1_4  + 0.634510 s_1_3  > -998.751100
tt + 1000 s_2_6 > 0.0
tt - t_2_6 - 1005.888657 s_2_6  + 0.981443 s_2_1  + 0.981443 s_2_2  + 0.981443 s_2_7  + 0.981443 s_2_5  + 0.981443 s_2_4  + 0.981443 s_2_3  > -998.098000
tt + 1000 s_1_7 > 0.0
tt - t_1_7 - 1000.000000 s_1_7  > -973.711506
tt + 1000 s_2_7 > 0.0
tt - t_2_7 - 1000.000000 s_2_7  > -987.883500
tt + 1000 s_1_8 > 0.0
tt - t_1_8 - 1000.000000 s_1_8  > -974.035750
tt + 1000 s_2_8 > 0.0
tt - t_2_8 - 1000.000000 s_2_8  > -989.137500
s_1_1 + s_2_1 = 1
s_1_2 + s_2_2 = 1
s_1_3 + s_2_3 = 1
s_1_4 + s_2_4 = 1
s_1_5 + s_2_5 = 1
s_1_6 + s_2_6 = 1
s_1_7 + s_2_7 = 1
s_1_8 + s_2_8 = 1
s_1_1 + s_1_2 + 1000 r_1_1_2 >= 2
- s_1_1 - s_1_2 - 1000 r_1_1_2 >= -1001
t_1_1 - t_1_2 - 1000.000000 u_1_1_2 - 0.634510 s_1_2  + 0.634510 s_1_7  + 2000.000000 r_1_1_2 > -981.055800
s_2_1 + s_2_2 + 1000 r_2_1_2 >= 2
- s_2_1 - s_2_2 - 1000 r_2_1_2 >= -1001
t_2_1 - t_2_2 - 1000.000000 u_2_1_2 - 0.981443 s_2_2  + 0.981443 s_2_7  + 2000.000000 r_2_1_2 > -983.663100
s_1_1 + s_1_3 + 1000 r_1_1_3 >= 2
- s_1_1 - s_1_3 - 1000 r_1_1_3 >= -1001
t_1_1 - t_1_3 - 1000.000000 u_1_1_3 - 1.269019 s_1_3  + 0.634510 s_1_8  + 0.634510 s_1_7  + 2000.000000 r_1_1_3 > -998.047544
s_2_1 + s_2_3 + 1000 r_2_1_3 >= 2
- s_2_1 - s_2_3 - 1000 r_2_1_3 >= -1001
t_2_1 - t_2_3 - 1000.000000 u_2_1_3 - 1.962886 s_2_3  + 0.981443 s_2_8  + 0.981443 s_2_7  + 2000.000000 r_2_1_3 > -995.118500
s_1_1 + s_1_4 + 1000 r_1_1_4 >= 2
- s_1_1 - s_1_4 - 1000 r_1_1_4 >= -1001
t_1_1 - t_1_4 - 1000.000000 u_1_1_4 - 0.634510 s_1_4  + 0.634510 s_1_7  + 2000.000000 r_1_1_4 > -997.069835
s_2_1 + s_2_4 + 1000 r_2_1_4 >= 2
- s_2_1 - s_2_4 - 1000 r_2_1_4 >= -1001
t_2_1 - t_2_4 - 1000.000000 u_2_1_4 - 0.981443 s_2_4  + 0.981443 s_2_7  + 2000.000000 r_2_1_4 > -992.713800
s_1_1 + s_1_5 + 1000 r_1_1_5 >= 2
- s_1_1 - s_1_5 - 1000 r_1_1_5 >= -1001
t_1_1 - t_1_5 - 1000.000000 u_1_1_5 - 0.634510 s_1_5  + 0.634510 s_1_8  + 2000.000000 r_1_1_5 > -991.069511
s_2_1 + s_2_5 + 1000 r_2_1_5 >= 2
- s_2_1 - s_2_5 - 1000 r_2_1_5 >= -1001
t_2_1 - t_2_5 - 1000.000000 u_2_1_5 - 0.981443 s_2_5  + 0.981443 s_2_8  + 2000.000000 r_2_1_5 > -991.143500
t_1_6 - t_1_1 - 1001.269019 s_1_1  + 0.634510 s_1_8  + 0.634510 s_1_7  > -981.131467
t_1_6 - t_2_1 - 1001.962886 s_2_1  + 0.981443 s_2_8  + 0.981443 s_2_7  > -983.607500
t_2_6 - t_1_1 - 1001.269019 s_1_1  + 0.634510 s_1_8  + 0.634510 s_1_7  > -981.131467
t_2_6 - t_2_1 - 1001.962886 s_2_1  + 0.981443 s_2_8  + 0.981443 s_2_7  > -983.607500
t_1_1 - t_1_7 - 1000.000000 s_1_7  > -973.711506
t_1_1 - t_2_7 - 1000.000000 s_2_7  > -987.883500
t_2_1 - t_1_7 - 1000.000000 s_1_7  > -973.711506
t_2_1 - t_2_7 - 1000.000000 s_2_7  > -987.883500
t_1_1 - t_1_8 - 1000.000000 s_1_8  > -974.035750
t_1_1 - t_2_8 - 1000.000000 s_2_8  > -989.137500
t_2_1 - t_1_8 - 1000.000000 s_1_8  > -974.035750
t_2_1 - t_2_8 - 1000.000000 s_2_8  > -989.137500
s_1_2 + s_1_1 + 1000 r_1_1_2 >= 2
- s_1_2 - s_1_1 - 1000 r_1_1_2 >= -1001
t_1_2 - t_1_1 + 1000.000000 u_1_1_2 - 1.269019 s_1_1  + 0.634510 s_1_8  + 0.634510 s_1_7  + 2000.000000 r_1_1_2 > 18.868533
s_2_2 + s_2_1 + 1000 r_2_1_2 >= 2
- s_2_2 - s_2_1 - 1000 r_2_1_2 >= -1001
t_2_2 - t_2_1 + 1000.000000 u_2_1_2 - 1.962886 s_2_1  + 0.981443 s_2_8  + 0.981443 s_2_7  + 2000.000000 r_2_1_2 > 16.392500
s_1_2 + s_1_3 + 1000 r_1_2_3 >= 2
- s_1_2 - s_1_3 - 1000 r_1_2_3 >= -1001
t_1_2 - t_1_3 - 1000.000000 u_1_2_3 - 1.269019 s_1_3  + 0.634510 s_1_8  + 0.634510 s_1_7  + 2000.000000 r_1_2_3 > -998.047544
s_2_2 + s_2_3 + 1000 r_2_2_3 >= 2
- s_2_2 - s_2_3 - 1000 r_2_2_3 >= -1001
t_2_2 - t_2_3 - 1000.000000 u_2_2_3 - 1.962886 s_2_3  + 0.981443 s_2_8  + 0.981443 s_2_7  + 2000.000000 r_2_2_3 > -995.118500
s_1_2 + s_1_4 + 1000 r_1_2_4 >= 2
- s_1_2 - s_1_4 - 1000 r_1_2_4 >= -1001
t_1_2 - t_1_4 - 1000.000000 u_1_2_4 - 0.634510 s_1_4  + 0.634510 s_1_7  + 2000.000000 r_1_2_4 > -997.069835
s_2_2 + s_2_4 + 1000 r_2_2_4 >= 2
- s_2_2 - s_2_4 - 1000 r_2_2_4 >= -1001
t_2_2 - t_2_4 - 1000.000000 u_2_2_4 - 0.981443 s_2_4  + 0.981443 s_2_7  + 2000.000000 r_2_2_4 > -992.713800
s_1_2 + s_1_5 + 1000 r_1_2_5 >= 2
- s_1_2 - s_1_5 - 1000 r_1_2_5 >= -1001
t_1_2 - t_1_5 - 1000.000000 u_1_2_5 - 0.634510 s_1_5  + 0.634510 s_1_8  + 2000.000000 r_1_2_5 > -991.069511
s_2_2 + s_2_5 + 1000 r_2_2_5 >= 2
- s_2_2 - s_2_5 - 1000 r_2_2_5 >= -1001
t_2_2 - t_2_5 - 1000.000000 u_2_2_5 - 0.981443 s_2_5  + 0.981443 s_2_8  + 2000.000000 r_2_2_5 > -991.143500
t_1_6 - t_1_2 - 1000.634510 s_1_2  + 0.634510 s_1_7  > -981.055800
t_1_6 - t_2_2 - 1000.981443 s_2_2  + 0.981443 s_2_7  > -983.663100
t_2_6 - t_1_2 - 1000.634510 s_1_2  + 0.634510 s_1_7  > -981.055800
t_2_6 - t_2_2 - 1000.981443 s_2_2  + 0.981443 s_2_7  > -983.663100
t_1_2 - t_1_7 - 1000.000000 s_1_7  > -973.711506
t_1_2 - t_2_7 - 1000.000000 s_2_7  > -987.883500
t_2_2 - t_1_7 - 1000.000000 s_1_7  > -973.711506
t_2_2 - t_2_7 - 1000.000000 s_2_7  > -987.883500
s_1_2 + s_1_8 + 1000 r_1_2_8 >= 2
- s_1_2 - s_1_8 - 1000 r_1_2_8 >= -1001
t_1_2 - t_1_8 - 1000.000000 u_1_2_8 - 0.000000 s_1_8  + 2000.000000 r_1_2_8 > -974.035750
s_2_2 + s_2_8 + 1000 r_2_2_8 >= 2
- s_2_2 - s_2_8 - 1000 r_2_2_8 >= -1001
t_2_2 - t_2_8 - 1000.000000 u_2_2_8 - 0.000000 s_2_8  + 2000.000000 r_2_2_8 > -989.137500
s_1_3 + s_1_1 + 1000 r_1_1_3 >= 2
- s_1_3 - s_1_1 - 1000 r_1_1_3 >= -1001
t_1_3 - t_1_1 + 1000.000000 u_1_1_3 - 1.269019 s_1_1  + 0.634510 s_1_8  + 0.634510 s_1_7  + 2000.000000 r_1_1_3 > 18.868533
s_2_3 + s_2_1 + 1000 r_2_1_3 >= 2
- s_2_3 - s_2_1 - 1000 r_2_1_3 >= -1001
t_2_3 - t_2_1 + 1000.000000 u_2_1_3 - 1.962886 s_2_1  + 0.981443 s_2_8  + 0.981443 s_2_7  + 2000.000000 r_2_1_3 > 16.392500
s_1_3 + s_1_2 + 1000 r_1_2_3 >= 2
- s_1_3 - s_1_2 - 1000 r_1_2_3 >= -1001
t_1_3 - t_1_2 + 1000.000000 u_1_2_3 - 0.634510 s_1_2  + 0.634510 s_1_7  + 2000.000000 r_1_2_3 > 18.944200
s_2_3 + s_2_2 + 1000 r_2_2_3 >= 2
- s_2_3 - s_2_2 - 1000 r_2_2_3 >= -1001
t_2_3 - t_2_2 + 1000.000000 u_2_2_3 - 0.981443 s_2_2  + 0.981443 s_2_7  + 2000.000000 r_2_2_3 > 16.336900
s_1_3 + s_1_4 + 1000 r_1_3_4 >= 2
- s_1_3 - s_1_4 - 1000 r_1_3_4 >= -1001
t_1_3 - t_1_4 - 1000.000000 u_1_3_4 - 0.634510 s_1_4  + 0.634510 s_1_7  + 2000.000000 r_1_3_4 > -997.069835
s_2_3 + s_2_4 + 1000 r_2_3_4 >= 2
- s_2_3 - s_2_4 - 1000 r_2_3_4 >= -1001
t_2_3 - t_2_4 - 1000.000000 u_2_3_4 - 0.981443 s_2_4  + 0.981443 s_2_7  + 2000.000000 r_2_3_4 > -992.713800
s_1_3 + s_1_5 + 1000 r_1_3_5 >= 2
- s_1_3 - s_1_5 - 1000 r_1_3_5 >= -1001
t_1_3 - t_1_5 - 1000.000000 u_1_3_5 - 0.634510 s_1_5  + 0.634510 s_1_8  + 2000.000000 r_1_3_5 > -991.069511
s_2_3 + s_2_5 + 1000 r_2_3_5 >= 2
- s_2_3 - s_2_5 - 1000 r_2_3_5 >= -1001
t_2_3 - t_2_5 - 1000.000000 u_2_3_5 - 0.981443 s_2_5  + 0.981443 s_2_8  + 2000.000000 r_2_3_5 > -991.143500
t_1_6 - t_1_3 - 1001.269019 s_1_3  + 0.634510 s_1_8  + 0.634510 s_1_7  > -998.047544
t_1_6 - t_2_3 - 1001.962886 s_2_3  + 0.981443 s_2_8  + 0.981443 s_2_7  > -995.118500
t_2_6 - t_1_3 - 1001.269019 s_1_3  + 0.634510 s_1_8  + 0.634510 s_1_7  > -998.047544
t_2_6 - t_2_3 - 1001.962886 s_2_3  + 0.981443 s_2_8  + 0.981443 s_2_7  > -995.118500
t_1_3 - t_1_7 - 1000.000000 s_1_7  > -973.711506
t_1_3 - t_2_7 - 1000.000000 s_2_7  > -987.883500
t_2_3 - t_1_7 - 1000.000000 s_1_7  > -973.711506
t_2_3 - t_2_7 - 1000.000000 s_2_7  > -987.883500
t_1_3 - t_1_8 - 1000.000000 s_1_8  > -974.035750
t_1_3 - t_2_8 - 1000.000000 s_2_8  > -989.137500
t_2_3 - t_1_8 - 1000.000000 s_1_8  > -974.035750
t_2_3 - t_2_8 - 1000.000000 s_2_8  > -989.137500
s_1_4 + s_1_1 + 1000 r_1_1_4 >= 2
- s_1_4 - s_1_1 - 1000 r_1_1_4 >= -1001
t_1_4 - t_1_1 + 1000.000000 u_1_1_4 - 1.269019 s_1_1  + 0.634510 s_1_8  + 0.634510 s_1_7  + 2000.000000 r_1_1_4 > 18.868533
s_2_4 + s_2_1 + 1000 r_2_1_4 >= 2
- s_2_4 - s_2_1 - 1000 r_2_1_4 >= -1001
t_2_4 - t_2_1 + 1000.000000 u_2_1_4 - 1.962886 s_2_1  + 0.981443 s_2_8  + 0.981443 s_2_7  + 2000.000000 r_2_1_4 > 16.392500
s_1_4 + s_1_2 + 1000 r_1_2_4 >= 2
- s_1_4 - s_1_2 - 1000 r_1_2_4 >= -1001
t_1_4 - t_1_2 + 1000.000000 u_1_2_4 - 0.634510 s_1_2  + 0.634510 s_1_7  + 2000.000000 r_1_2_4 > 18.944200
s_2_4 + s_2_2 + 1000 r_2_2_4 >= 2
- s_2_4 - s_2_2 - 1000 r_2_2_4 >= -1001
t_2_4 - t_2_2 + 1000.000000 u_2_2_4 - 0.981443 s_2_2  + 0.981443 s_2_7  + 2000.000000 r_2_2_4 > 16.336900
s_1_4 + s_1_3 + 1000 r_1_3_4 >= 2
- s_1_4 - s_1_3 - 1000 r_1_3_4 >= -1001
t_1_4 - t_1_3 + 1000.000000 u_1_3_4 - 1.269019 s_1_3  + 0.634510 s_1_8  + 0.634510 s_1_7  + 2000.000000 r_1_3_4 > 1.952456
s_2_4 + s_2_3 + 1000 r_2_3_4 >= 2
- s_2_4 - s_2_3 - 1000 r_2_3_4 >= -1001
t_2_4 - t_2_3 + 1000.000000 u_2_3_4 - 1.962886 s_2_3  + 0.981443 s_2_8  + 0.981443 s_2_7  + 2000.000000 r_2_3_4 > 4.881500
s_1_4 + s_1_5 + 1000 r_1_4_5 >= 2
- s_1_4 - s_1_5 - 1000 r_1_4_5 >= -1001
t_1_4 - t_1_5 - 1000.000000 u_1_4_5 - 0.634510 s_1_5  + 0.634510 s_1_8  + 2000.000000 r_1_4_5 > -991.069511
s_2_4 + s_2_5 + 1000 r_2_4_5 >= 2
- s_2_4 - s_2_5 - 1000 r_2_4_5 >= -1001
t_2_4 - t_2_5 - 1000.000000 u_2_4_5 - 0.981443 s_2_5  + 0.981443 s_2_8  + 2000.000000 r_2_4_5 > -991.143500
t_1_6 - t_1_4 - 1000.634510 s_1_4  + 0.634510 s_1_7  > -997.069835
t_1_6 - t_2_4 - 1000.981443 s_2_4  + 0.981443 s_2_7  > -992.713800
t_2_6 - t_1_4 - 1000.634510 s_1_4  + 0.634510 s_1_7  > -997.069835
t_2_6 - t_2_4 - 1000.981443 s_2_4  + 0.981443 s_2_7  > -992.713800
t_1_4 - t_1_7 - 1000.000000 s_1_7  > -973.711506
t_1_4 - t_2_7 - 1000.000000 s_2_7  > -987.883500
t_2_4 - t_1_7 - 1000.000000 s_1_7  > -973.711506
t_2_4 - t_2_7 - 1000.000000 s_2_7  > -987.883500
s_1_4 + s_1_8 + 1000 r_1_4_8 >= 2
- s_1_4 - s_1_8 - 1000 r_1_4_8 >= -1001
t_1_4 - t_1_8 - 1000.000000 u_1_4_8 - 0.000000 s_1_8  + 2000.000000 r_1_4_8 > -974.035750
s_2_4 + s_2_8 + 1000 r_2_4_8 >= 2
- s_2_4 - s_2_8 - 1000 r_2_4_8 >= -1001
t_2_4 - t_2_8 - 1000.000000 u_2_4_8 - 0.000000 s_2_8  + 2000.000000 r_2_4_8 > -989.137500
s_1_5 + s_1_1 + 1000 r_1_1_5 >= 2
- s_1_5 - s_1_1 - 1000 r_1_1_5 >= -1001
t_1_5 - t_1_1 + 1000.000000 u_1_1_5 - 1.269019 s_1_1  + 0.634510 s_1_8  + 0.634510 s_1_7  + 2000.000000 r_1_1_5 > 18.868533
s_2_5 + s_2_1 + 1000 r_2_1_5 >= 2
- s_2_5 - s_2_1 - 1000 r_2_1_5 >= -1001
t_2_5 - t_2_1 + 1000.000000 u_2_1_5 - 1.962886 s_2_1  + 0.981443 s_2_8  + 0.981443 s_2_7  + 2000.000000 r_2_1_5 > 16.392500
s_1_5 + s_1_2 + 1000 r_1_2_5 >= 2
- s_1_5 - s_1_2 - 1000 r_1_2_5 >= -1001
t_1_5 - t_1_2 + 1000.000000 u_1_2_5 - 0.634510 s_1_2  + 0.634510 s_1_7  + 2000.000000 r_1_2_5 > 18.944200
s_2_5 + s_2_2 + 1000 r_2_2_5 >= 2
- s_2_5 - s_2_2 - 1000 r_2_2_5 >= -1001
t_2_5 - t_2_2 + 1000.000000 u_2_2_5 - 0.981443 s_2_2  + 0.981443 s_2_7  + 2000.000000 r_2_2_5 > 16.336900
s_1_5 + s_1_3 + 1000 r_1_3_5 >= 2
- s_1_5 - s_1_3 - 1000 r_1_3_5 >= -1001
t_1_5 - t_1_3 + 1000.000000 u_1_3_5 - 1.269019 s_1_3  + 0.634510 s_1_8  + 0.634510 s_1_7  + 2000.000000 r_1_3_5 > 1.952456
s_2_5 + s_2_3 + 1000 r_2_3_5 >= 2
- s_2_5 - s_2_3 - 1000 r_2_3_5 >= -1001
t_2_5 - t_2_3 + 1000.000000 u_2_3_5 - 1.962886 s_2_3  + 0.981443 s_2_8  + 0.981443 s_2_7  + 2000.000000 r_2_3_5 > 4.881500
s_1_5 + s_1_4 + 1000 r_1_4_5 >= 2
- s_1_5 - s_1_4 - 1000 r_1_4_5 >= -1001
t_1_5 - t_1_4 + 1000.000000 u_1_4_5 - 0.634510 s_1_4  + 0.634510 s_1_7  + 2000.000000 r_1_4_5 > 2.930165
s_2_5 + s_2_4 + 1000 r_2_4_5 >= 2
- s_2_5 - s_2_4 - 1000 r_2_4_5 >= -1001
t_2_5 - t_2_4 + 1000.000000 u_2_4_5 - 0.981443 s_2_4  + 0.981443 s_2_7  + 2000.000000 r_2_4_5 > 7.286200
t_1_6 - t_1_5 - 1000.634510 s_1_5  + 0.634510 s_1_8  > -991.069511
t_1_6 - t_2_5 - 1000.981443 s_2_5  + 0.981443 s_2_8  > -991.143500
t_2_6 - t_1_5 - 1000.634510 s_1_5  + 0.634510 s_1_8  > -991.069511
t_2_6 - t_2_5 - 1000.981443 s_2_5  + 0.981443 s_2_8  > -991.143500
s_1_5 + s_1_7 + 1000 r_1_5_7 >= 2
- s_1_5 - s_1_7 - 1000 r_1_5_7 >= -1001
t_1_5 - t_1_7 - 1000.000000 u_1_5_7 - 0.000000 s_1_7  + 2000.000000 r_1_5_7 > -973.711506
s_2_5 + s_2_7 + 1000 r_2_5_7 >= 2
- s_2_5 - s_2_7 - 1000 r_2_5_7 >= -1001
t_2_5 - t_2_7 - 1000.000000 u_2_5_7 - 0.000000 s_2_7  + 2000.000000 r_2_5_7 > -987.883500
t_1_5 - t_1_8 - 1000.000000 s_1_8  > -974.035750
t_1_5 - t_2_8 - 1000.000000 s_2_8  > -989.137500
t_2_5 - t_1_8 - 1000.000000 s_1_8  > -974.035750
t_2_5 - t_2_8 - 1000.000000 s_2_8  > -989.137500
t_1_6 - t_1_7 - 1000.000000 s_1_7  > -973.711506
t_1_6 - t_2_7 - 1000.000000 s_2_7  > -987.883500
t_2_6 - t_1_7 - 1000.000000 s_1_7  > -973.711506
t_2_6 - t_2_7 - 1000.000000 s_2_7  > -987.883500
s_1_7 + s_1_5 + 1000 r_1_5_7 >= 2
- s_1_7 - s_1_5 - 1000 r_1_5_7 >= -1001
t_1_7 - t_1_5 + 1000.000000 u_1_5_7 - 0.634510 s_1_5  + 0.634510 s_1_8  + 2000.000000 r_1_5_7 > 8.930489
s_2_7 + s_2_5 + 1000 r_2_5_7 >= 2
- s_2_7 - s_2_5 - 1000 r_2_5_7 >= -1001
t_2_7 - t_2_5 + 1000.000000 u_2_5_7 - 0.981443 s_2_5  + 0.981443 s_2_8  + 2000.000000 r_2_5_7 > 8.856500
s_1_7 + s_1_8 + 1000 r_1_7_8 >= 2
- s_1_7 - s_1_8 - 1000 r_1_7_8 >= -1001
t_1_7 - t_1_8 - 1000.000000 u_1_7_8 - 0.000000 s_1_8  + 2000.000000 r_1_7_8 > -974.035750
s_2_7 + s_2_8 + 1000 r_2_7_8 >= 2
- s_2_7 - s_2_8 - 1000 r_2_7_8 >= -1001
t_2_7 - t_2_8 - 1000.000000 u_2_7_8 - 0.000000 s_2_8  + 2000.000000 r_2_7_8 > -989.137500
s_1_8 + s_1_2 + 1000 r_1_2_8 >= 2
- s_1_8 - s_1_2 - 1000 r_1_2_8 >= -1001
t_1_8 - t_1_2 + 1000.000000 u_1_2_8 - 0.634510 s_1_2  + 0.634510 s_1_7  + 2000.000000 r_1_2_8 > 18.944200
s_2_8 + s_2_2 + 1000 r_2_2_8 >= 2
- s_2_8 - s_2_2 - 1000 r_2_2_8 >= -1001
t_2_8 - t_2_2 + 1000.000000 u_2_2_8 - 0.981443 s_2_2  + 0.981443 s_2_7  + 2000.000000 r_2_2_8 > 16.336900
s_1_8 + s_1_4 + 1000 r_1_4_8 >= 2
- s_1_8 - s_1_4 - 1000 r_1_4_8 >= -1001
t_1_8 - t_1_4 + 1000.000000 u_1_4_8 - 0.634510 s_1_4  + 0.634510 s_1_7  + 2000.000000 r_1_4_8 > 2.930165
s_2_8 + s_2_4 + 1000 r_2_4_8 >= 2
- s_2_8 - s_2_4 - 1000 r_2_4_8 >= -1001
t_2_8 - t_2_4 + 1000.000000 u_2_4_8 - 0.981443 s_2_4  + 0.981443 s_2_7  + 2000.000000 r_2_4_8 > 7.286200
s_1_8 + s_1_7 + 1000 r_1_7_8 >= 2
- s_1_8 - s_1_7 - 1000 r_1_7_8 >= -1001
t_1_8 - t_1_7 + 1000.000000 u_1_7_8 - 0.000000 s_1_7  + 2000.000000 r_1_7_8 > 26.288494
s_2_8 + s_2_7 + 1000 r_2_7_8 >= 2
- s_2_8 - s_2_7 - 1000 r_2_7_8 >= -1001
t_2_8 - t_2_7 + 1000.000000 u_2_7_8 - 0.000000 s_2_7  + 2000.000000 r_2_7_8 > 12.116500
Binary
s_1_1
s_2_1
s_1_2
s_2_2
s_1_3
s_2_3
s_1_4
s_2_4
s_1_5
s_2_5
s_1_6
s_2_6
s_1_7
s_2_7
s_1_8
s_2_8
u_1_1_2
r_1_1_2
u_2_1_2
r_2_1_2
u_1_1_3
r_1_1_3
u_2_1_3
r_2_1_3
u_1_1_4
r_1_1_4
u_2_1_4
r_2_1_4
u_1_1_5
r_1_1_5
u_2_1_5
r_2_1_5
u_1_2_3
r_1_2_3
u_2_2_3
r_2_2_3
u_1_2_4
r_1_2_4
u_2_2_4
r_2_2_4
u_1_2_5
r_1_2_5
u_2_2_5
r_2_2_5
u_1_2_8
r_1_2_8
u_2_2_8
r_2_2_8
u_1_3_4
r_1_3_4
u_2_3_4
r_2_3_4
u_1_3_5
r_1_3_5
u_2_3_5
r_2_3_5
u_1_4_5
r_1_4_5
u_2_4_5
r_2_4_5
u_1_4_8
r_1_4_8
u_2_4_8
r_2_4_8
u_1_5_7
r_1_5_7
u_2_5_7
r_2_5_7
u_1_7_8
r_1_7_8
u_2_7_8
r_2_7_8

End
